certificates/rado_a13_c119_N28.drat
-26 -28 0
d -26 -9 -28 0
-11 -27 0
d -11 -3 -27 0
11 26 0
d 11 2 26 0
10 -28 0
-28 0
8 9 0
d 8 10 9 0
9 0
-7 0
-11 0
26 0
4 0
-24 0
-2 0
-6 0
-10 0
13 0
17 0
18 0
21 0
22 0
-15 0
-19 0
-20 0
-16 0
-23 0
8 0
27 0
5 0
12 0
0
